(set-logic QF_S)
(declare-fun _var_0xINPUT_103895_() String)
(declare-fun __woorpje_diseq_pref0_() String)
(declare-fun __woorpje_diseq_suf_l0_() String)
(declare-fun __woorpje_diseq_suf_r0_() String)
(assert (=(str.++  "35vd8oeY2x" "")(str.++ _var_0xINPUT_103895_  "")) )
(check-sat)
